# Objective value = 8321.68
I_0_0 1230
I_0_1 1705
I_0_2 1698
I_0_3 1461
I_0_4 1747
I_0_5 1510
I_0_6 1985
I_1_0 126
I_1_1 63
I_1_2 8.8817841970012523e-16
I_1_3 5.3290705182007514e-15
I_1_4 126
I_1_5 6.2999999999999993e+01
I_1_6 0
I_2_0 61
I_2_1 0
I_2_2 5.3000000000000107e+01
I_2_3 61
I_2_4 0
I_2_5 6.0999999999999993e+01
I_2_6 0
I_3_0 22
I_3_1 11
I_3_2 22
I_3_3 11
I_3_4 7.7715611723760958e-16
I_3_5 11
I_3_6 0
I_4_0 110
I_4_1 55
I_4_2 0
I_4_3 55
I_4_4 0
I_4_5 5.4999999999999993e+01
I_4_6 0
I_5_0 14
I_5_1 -8.8817841970012523e-16
I_5_2 14
I_5_3 14
I_5_4 -1.1102230246251565e-16
I_5_5 14
I_5_6 0
I_6_0 99
I_6_1 0
I_6_2 99
I_6_3 9.8999999999999986e+01
I_6_4 0
I_6_5 99
I_6_6 0
I_7_0 78
I_7_1 39
I_7_2 78
I_7_3 39
I_7_4 4.4408920985006262e-16
I_7_5 3.8999999999999751e+01
I_7_6 0
I_8_0 21
I_8_1 0
I_8_2 21
I_8_3 21
I_8_4 4.4408920985006262e-16
I_8_5 21
I_8_6 4.4408920985006262e-16
I_9_0 64
I_9_1 32
I_9_2 0
I_9_3 64
I_9_4 32
I_9_5 3.2000000000000682e+01
I_9_6 6.8567374000849668e-13
I_10_0 160
I_10_1 80
I_10_2 -3.5527136788005009e-15
I_10_3 1.5999999999999997e+02
I_10_4 7.9999999999999972e+01
I_10_5 7.9999999999999517e+01
I_10_6 0
q_1_0 8.8817841970012523e-16
q_1_1 0
q_1_2 6.3000000000000014e+01
q_1_3 1.8900000000000003e+02
q_1_4 8.8817841970012523e-16
q_1_5 8.8817841970012523e-16
q_2_0 0
q_2_1 1.1400000000000011e+02
q_2_2 6.8999999999999886e+01
q_2_3 0
q_2_4 122
q_2_5 7.1054273576010019e-15
q_3_0 0
q_3_1 22
q_3_2 0
q_3_3 -3.3306690738754696e-16
q_3_4 2.1999999999999996e+01
q_3_5 0
q_4_0 0
q_4_1 0
q_4_2 1.1000000000000010e+02
q_4_3 0
q_4_4 1.1000000000000001e+02
q_4_5 0
q_5_0 -8.8817841970012523e-16
q_5_1 28
q_5_2 14
q_5_3 -1.1102230246251565e-16
q_5_4 28
q_5_5 0
q_6_0 0
q_6_1 198
q_6_2 9.8999999999999986e+01
q_6_3 1.4210854715202004e-14
q_6_4 198
q_6_5 0
q_7_0 0
q_7_1 78
q_7_2 -4.4408920985006262e-16
q_7_3 8.8817841970012523e-16
q_7_4 7.7999999999999758e+01
q_7_5 0
q_8_0 0
q_8_1 42
q_8_2 21
q_8_3 4.4408920985006262e-16
q_8_4 42
q_8_5 4.4408920985006262e-16
q_9_0 0
q_9_1 0
q_9_2 96
q_9_3 8.8817841970012523e-16
q_9_4 3.2000000000000689e+01
q_9_5 0
q_10_0 0
q_10_1 -3.5527136788005009e-15
q_10_2 2.3999999999999997e+02
q_10_3 0
q_10_4 7.9999999999999545e+01
q_10_5 0
y_0_0 0
y_0_1 1
y_0_2 1
y_0_3 1
y_0_4 1
y_0_5 5.2041704279304213e-18
y_1_0 0
y_1_1 -2.7755575615628914e-17
y_1_2 1
y_1_3 1
y_1_4 2.0816681711721685e-17
y_1_5 1.3877787807814457e-17
y_2_0 0
y_2_1 1
y_2_2 1
y_2_3 0
y_2_4 1.0000000000000002e+00
y_2_5 0
y_3_0 0
y_3_1 1
y_3_2 0
y_3_3 -6.9388939039072284e-18
y_3_4 1
y_3_5 0
y_4_0 0
y_4_1 0
y_4_2 1
y_4_3 0
y_4_4 1
y_4_5 0
y_5_0 0
y_5_1 1
y_5_2 1
y_5_3 -1.3877787807814457e-17
y_5_4 1
y_5_5 0
y_6_0 0
y_6_1 1
y_6_2 1
y_6_3 0
y_6_4 1
y_6_5 0
y_7_0 0
y_7_1 1
y_7_2 0
y_7_3 1.3877787807814457e-17
y_7_4 1
y_7_5 0
y_8_0 0
y_8_1 1
y_8_2 9.9999999999999989e-01
y_8_3 1.3877787807814457e-17
y_8_4 9.9999999999999989e-01
y_8_5 2.0816681711721685e-17
y_9_0 0
y_9_1 0
y_9_2 1
y_9_3 1.3877787807814457e-17
y_9_4 1
y_9_5 0
y_10_0 0
y_10_1 -2.7755575615628914e-17
y_10_2 1
y_10_3 0
y_10_4 1
y_10_5 0
x_0_1_0 2.7755575615628914e-17
x_0_1_1 -1.3877787807814457e-17
x_0_1_2 1
x_0_1_3 2
x_0_1_4 4.1633363423443370e-17
x_0_1_5 1.0408340855860843e-17
x_0_2_0 0
x_0_2_1 0
x_0_2_2 0
x_0_2_3 0
x_0_2_4 0
x_0_2_5 0
x_0_3_0 0
x_0_3_1 0
x_0_3_2 0
x_0_3_3 0
x_0_3_4 0
x_0_3_5 0
x_0_4_0 0
x_0_4_1 0
x_0_4_2 0
x_0_4_3 0
x_0_4_4 0
x_0_4_5 0
x_0_5_0 0
x_0_5_1 1
x_0_5_2 0
x_0_5_3 0
x_0_5_4 0
x_0_5_5 0
x_0_6_0 0
x_0_6_1 0
x_0_6_2 0
x_0_6_3 0
x_0_6_4 0
x_0_6_5 0
x_0_7_0 0
x_0_7_1 0
x_0_7_2 0
x_0_7_3 0
x_0_7_4 0
x_0_7_5 0
x_0_8_0 0
x_0_8_1 1
x_0_8_2 9.9999999999999989e-01
x_0_8_3 0
x_0_8_4 1
x_0_8_5 0
x_0_9_0 0
x_0_9_1 0
x_0_9_2 0
x_0_9_3 0
x_0_9_4 0
x_0_9_5 0
x_0_10_0 -2.7755575615628914e-17
x_0_10_1 0
x_0_10_2 2.0816681711721685e-17
x_0_10_3 0
x_0_10_4 1
x_0_10_5 0
x_1_2_0 0
x_1_2_1 0
x_1_2_2 0
x_1_2_3 0
x_1_2_4 0
x_1_2_5 0
x_1_3_0 0
x_1_3_1 0
x_1_3_2 0
x_1_3_3 0
x_1_3_4 0
x_1_3_5 0
x_1_4_0 0
x_1_4_1 0
x_1_4_2 0
x_1_4_3 0
x_1_4_4 0
x_1_4_5 0
x_1_5_0 0
x_1_5_1 0
x_1_5_2 0
x_1_5_3 0
x_1_5_4 0
x_1_5_5 0
x_1_6_0 0
x_1_6_1 0
x_1_6_2 0
x_1_6_3 0
x_1_6_4 0
x_1_6_5 0
x_1_7_0 0
x_1_7_1 0
x_1_7_2 0
x_1_7_3 0
x_1_7_4 0
x_1_7_5 0
x_1_8_0 0
x_1_8_1 0
x_1_8_2 0
x_1_8_3 1.3877787807814457e-17
x_1_8_4 0
x_1_8_5 4.1633363423443370e-17
x_1_9_0 0
x_1_9_1 0
x_1_9_2 0
x_1_9_3 0
x_1_9_4 0
x_1_9_5 0
x_1_10_0 2.7755575615628914e-17
x_1_10_1 -4.1633363423443370e-17
x_1_10_2 1
x_1_10_3 -2.7755575615628914e-17
x_1_10_4 0
x_1_10_5 0
x_2_3_0 0
x_2_3_1 0
x_2_3_2 0
x_2_3_3 0
x_2_3_4 0
x_2_3_5 0
x_2_4_0 0
x_2_4_1 0
x_2_4_2 0
x_2_4_3 0
x_2_4_4 0
x_2_4_5 0
x_2_5_0 0
x_2_5_1 2.7755575615628914e-17
x_2_5_2 6.9388939039072284e-18
x_2_5_3 -1.3877787807814457e-17
x_2_5_4 0
x_2_5_5 0
x_2_6_0 0
x_2_6_1 1
x_2_6_2 1
x_2_6_3 0
x_2_6_4 1.0000000000000002e+00
x_2_6_5 0
x_2_7_0 0
x_2_7_1 1
x_2_7_2 0
x_2_7_3 1.3877787807814457e-17
x_2_7_4 1
x_2_7_5 0
x_2_8_0 0
x_2_8_1 -2.7755575615628914e-17
x_2_8_2 9.9999999999999989e-01
x_2_8_3 0
x_2_8_4 1.3877787807814457e-17
x_2_8_5 0
x_2_9_0 0
x_2_9_1 0
x_2_9_2 0
x_2_9_3 0
x_2_9_4 0
x_2_9_5 0
x_2_10_0 0
x_2_10_1 0
x_2_10_2 0
x_2_10_3 0
x_2_10_4 0
x_2_10_5 0
x_3_4_0 0
x_3_4_1 0
x_3_4_2 0
x_3_4_3 0
x_3_4_4 0
x_3_4_5 0
x_3_5_0 0
x_3_5_1 1
x_3_5_2 -5.5511151231257827e-17
x_3_5_3 -1.3877787807814457e-17
x_3_5_4 1.0000000000000002e+00
x_3_5_5 0
x_3_6_0 0
x_3_6_1 1
x_3_6_2 0
x_3_6_3 0
x_3_6_4 1
x_3_6_5 0
x_3_7_0 0
x_3_7_1 0
x_3_7_2 0
x_3_7_3 0
x_3_7_4 0
x_3_7_5 0
x_3_8_0 0
x_3_8_1 0
x_3_8_2 0
x_3_8_3 0
x_3_8_4 0
x_3_8_5 0
x_3_9_0 0
x_3_9_1 2.7755575615628914e-17
x_3_9_2 0
x_3_9_3 0
x_3_9_4 0
x_3_9_5 0
x_3_10_0 0
x_3_10_1 0
x_3_10_2 0
x_3_10_3 0
x_3_10_4 0
x_3_10_5 0
x_4_5_0 0
x_4_5_1 0
x_4_5_2 1
x_4_5_3 -2.7755575615628914e-17
x_4_5_4 1
x_4_5_5 0
x_4_6_0 0
x_4_6_1 0
x_4_6_2 0
x_4_6_3 0
x_4_6_4 0
x_4_6_5 0
x_4_7_0 0
x_4_7_1 0
x_4_7_2 0
x_4_7_3 0
x_4_7_4 0
x_4_7_5 0
x_4_8_0 0
x_4_8_1 0
x_4_8_2 0
x_4_8_3 0
x_4_8_4 0
x_4_8_5 0
x_4_9_0 0
x_4_9_1 0
x_4_9_2 1
x_4_9_3 2.7755575615628914e-17
x_4_9_4 1
x_4_9_5 0
x_4_10_0 0
x_4_10_1 0
x_4_10_2 -4.85722573273506e-17
x_4_10_3 0
x_4_10_4 1.3877787807814457e-17
x_4_10_5 0
x_5_6_0 0
x_5_6_1 0
x_5_6_2 1
x_5_6_3 0
x_5_6_4 -6.9388939039072284e-18
x_5_6_5 0
x_5_7_0 0
x_5_7_1 0
x_5_7_2 0
x_5_7_3 0
x_5_7_4 0
x_5_7_5 0
x_5_8_0 0
x_5_8_1 0
x_5_8_2 0
x_5_8_3 0
x_5_8_4 0
x_5_8_5 0
x_5_9_0 0
x_5_9_1 0
x_5_9_2 0
x_5_9_3 0
x_5_9_4 0
x_5_9_5 0
x_5_10_0 0
x_5_10_1 0
x_5_10_2 0
x_5_10_3 0
x_5_10_4 0
x_5_10_5 0
x_6_7_0 0
x_6_7_1 0
x_6_7_2 0
x_6_7_3 0
x_6_7_4 0
x_6_7_5 0
x_6_8_0 0
x_6_8_1 0
x_6_8_2 0
x_6_8_3 0
x_6_8_4 0
x_6_8_5 0
x_6_9_0 0
x_6_9_1 0
x_6_9_2 0
x_6_9_3 0
x_6_9_4 0
x_6_9_5 0
x_6_10_0 0
x_6_10_1 0
x_6_10_2 0
x_6_10_3 0
x_6_10_4 0
x_6_10_5 0
x_7_8_0 0
x_7_8_1 1
x_7_8_2 0
x_7_8_3 1.3877787807814457e-17
x_7_8_4 1
x_7_8_5 0
x_7_9_0 0
x_7_9_1 0
x_7_9_2 0
x_7_9_3 0
x_7_9_4 0
x_7_9_5 0
x_7_10_0 0
x_7_10_1 0
x_7_10_2 0
x_7_10_3 0
x_7_10_4 0
x_7_10_5 0
x_8_9_0 0
x_8_9_1 0
x_8_9_2 0
x_8_9_3 0
x_8_9_4 0
x_8_9_5 0
x_8_10_0 0
x_8_10_1 0
x_8_10_2 0
x_8_10_3 0
x_8_10_4 0
x_8_10_5 0
x_9_10_0 0
x_9_10_1 -1.3877787807814457e-17
x_9_10_2 1
x_9_10_3 2.7755575615628914e-17
x_9_10_4 1
x_9_10_5 0
